p cnf 47 25
-37 -25 -22 0
40 2 -22 0
-1 -14 15 0
4 -1 43 0
-4 32 -36 0
16 -34 -21 0
-34 20 37 0
-12 -7 -36 0
-7 -4 46 0
22 -33 -34 0
-41 1 20 0
15 -7 -45 0
29 23 44 0
14 4 -8 0
30 -43 44 0
-32 27 -17 0
-29 38 -6 0
-1 -2 -3 -4 -5 -6 -7 -8 -9 -10 -11 -12 -13 -14 -15 -16 -17 -18 -19 -20 -21 -22 -23 -24 -25 -26 -27 -28 -29 -30 -31 -32 -33 -34 -35 -36 -37 -38 -39 -40 -41 -42 -43 -44 -45 -46 -47 0
-9 2 -35 0
1 2 3 4 5 6 7 8 9 10 11 12 13 14 15 16 17 18 19 20 21 22 23 24 25 26 27 28 29 30 31 32 33 34 35 36 37 38 39 40 41 42 43 44 45 46 47 0
34 3 -26 0
-44 -26 -18 0
39 -14 -1 0
-22 26 -14 0
-36 -9 26 0
